benchmarks/crosswords/ozn/crossword3_32.ozn
output ([(((("\n"++problem_name)++"\n")++"L:")++show(L))++"\n"]++[if problem[i,j]==0 then "*" else show(letters[fix(L[problem[i,j]])]) endif++if j==cols then "\n" else "" endif | i in 1..rows, j in 1..cols, ])++["\n"];
int: rows = 21;
int: cols = 21;
array [1..rows,1..cols] of int: problem = [|1,2,3,4,0,0,5,6,7,0,8,9,10,11,12,0,13,14,15,16,17|18,19,20,21,0,22,23,24,25,0,26,27,28,29,30,0,31,32,33,34,35|36,37,38,39,0,40,41,42,43,0,44,45,46,47,48,0,49,50,51,52,53|54,55,56,0,57,58,59,60,61,0,0,62,63,64,65,66,67,68,69,0,0|70,71,72,73,74,0,75,76,77,78,79,0,0,80,81,82,83,0,84,85,86|0,0,87,88,89,0,90,91,92,93,94,0,95,96,97,98,0,0,99,100,101|102,103,104,105,106,107,0,108,109,110,111,112,113,114,115,0,116,117,118,119,120|121,122,123,124,125,126,127,0,128,129,130,131,132,133,0,134,135,136,137,138,139|140,141,142,143,0,144,145,146,0,147,148,149,150,0,151,152,153,154,155,156,0|157,158,159,160,0,161,162,163,164,0,165,166,167,168,169,170,171,172,0,0,0|173,174,175,0,176,177,178,179,180,181,0,182,183,184,185,186,187,0,188,189,190|0,0,0,191,192,193,194,195,196,197,198,0,199,200,201,202,0,203,204,205,206|0,207,208,209,210,211,212,0,213,214,215,216,0,217,218,219,0,220,221,222,223|224,225,226,227,228,229,0,230,231,232,233,234,235,0,236,237,238,239,240,241,242|243,244,245,246,247,0,248,249,250,251,252,253,254,255,0,256,257,258,259,260,261|262,263,264,0,0,265,266,267,268,0,269,270,271,272,273,0,274,275,276,0,0|277,278,279,0,280,281,282,283,0,0,284,285,286,287,288,0,289,290,291,292,293|0,0,294,295,296,297,298,299,300,301,0,0,302,303,304,305,306,0,307,308,309|310,311,312,313,314,0,315,316,317,318,319,0,320,321,322,323,0,324,325,326,327|328,329,330,331,332,0,333,334,335,336,337,0,338,339,340,341,0,342,343,344,345|346,347,348,349,350,0,351,352,353,354,355,0,356,357,358,0,0,359,360,361,362|];
int: num_letters = 26;
array [1..num_letters] of string: letters = ["a","b","c","d","e","f","g","h","i","j","k","l","m","n","o","p","q","r","s","t","u","v","w","x","y","z"];
int: N = 362;
array [0..N] of int: L;
string: problem_name = "21.03, 21 x 21";
